tsp_instances/TSP50/instance10.tsp
NODE_COORD_SECTION
0 25 58
1 182 38
2 79 197
3 114 33
4 153 141
5 168 20
6 92 30
7 122 58
8 187 106
9 132 28
10 136 107
11 45 86
12 98 147
13 20 137
14 62 67
15 42 144
16 132 10
17 0 191
18 150 29
19 149 38
20 113 95
21 200 195
22 168 94
23 82 159
24 123 100
25 107 0
26 117 78
27 195 193
28 148 140
29 14 50
30 94 12
31 198 35
32 92 111
33 196 185
34 133 199
35 198 96
36 143 96
37 174 148
38 147 182
39 195 175
40 93 183
41 89 73
42 27 25
43 128 179
44 33 82
45 14 50
46 61 187
47 98 177
48 82 144
49 15 11
