tsp_instances/TSP50/instance10.opt.tour
TOUR_SECTION
1
45
12
16
14
18
47
3
41
48
44
35
39
28
22
34
40
38
5
29
13
24
49
33
21
25
11
37
23
9
36
32
2
6
19
20
10
17
26
31
7
4
8
27
42
15
43
50
30
46
-1